
#######################################################################
#
#                 Cambridge Crystallographic Data Centre
#                                CCDC
#
#######################################################################
#
# If this CIF has been generated from an entry in the Cambridge
# Structural Database, then it will include bibliographic, chemical,
# crystal, experimental, refinement or atomic coordinate data resulting
# from the CCDC's data processing and validation procedures.
#
#######################################################################

data_CSD_CIF_WIKZUL
_audit_creation_date 1995-04-19
_audit_creation_method CSD-ConQuest-V1
_database_code_CSD WIKZUL
_database_code_depnum_ccdc_archive '1293807'
_chemical_formula_sum 'C3 H3 N3 O2'
_chemical_formula_moiety
;
C3 H3 N3 O2
;
_journal_coden_Cambridge 622
_journal_volume 50
_journal_year 1994
_journal_page_first 746
_journal_name_full 'Acta Crystallogr.,Sect.B:Struct.Sci. '
loop_
_publ_author_name
"A.L.Llamas-Saiz"
"C.Foces-Foces"
"F.H.Cano"
"P.Jimenez"
"J.Laynez"
"W.Meutermans"
"J.Elguero"
"H.-H.Limbach"
"F.Aquilar-Parrilla"
_chemical_name_systematic
;
4-Nitropyrazole
;
_cell_volume    749.807
_exptl_crystal_colour 'colorless'
_exptl_crystal_density_diffrn 1.503
_diffrn_ambient_temperature ?
_diffrn_special_details
;
The study was carried out at room temperature,in the range 283-303K

;
_refine_special_details
;
The hydrogen atom is disordered over N1 and N2.

;
#These two values have been output from a single CSD field.
_refine_ls_R_factor_gt 0.063
_refine_ls_wR_factor_gt 0.063
_symmetry_cell_setting triclinic
_symmetry_space_group_name_H-M 'P -1'
_symmetry_Int_Tables_number 2
loop_
_symmetry_equiv_pos_site_id
_symmetry_equiv_pos_as_xyz
1 x,y,z
2 -x,-y,-z
_cell_length_a 9.8831(7)
_cell_length_b 9.6688(7)
_cell_length_c 8.3417(4)
_cell_angle_alpha 81.139(4)
_cell_angle_beta 100.076(4)
_cell_angle_gamma 105.966(6)
_cell_formula_units_Z 6
loop_
_atom_type_symbol
_atom_type_radius_bond
C 0.68
H 0.23
N 0.68
O 0.68
loop_
_atom_site_label
_atom_site_type_symbol
_atom_site_fract_x
_atom_site_fract_y
_atom_site_fract_z
N1 N 0.0375(3) 0.3279(3) -0.0574(4)
N2 N 0.1002(3) 0.4612(3) -0.1237(3)
C1 C 0.0139(3) 0.5006(3) -0.2498(4)
C2 C -0.1074(3) 0.3895(3) -0.2653(3)
C3 C -0.0887(3) 0.2832(3) -0.1425(4)
N3 N -0.2303(3) 0.3848(4) -0.3837(4)
O1 O -0.3288(3) 0.2741(4) -0.3770(4)
O2 O -0.2322(4) 0.4897(5) -0.4850(4)
H1 H 0.072(8) 0.272(9) 0.046(12)
H2 H 0.035(4) 0.580(5) -0.310(5)
H3 H -0.143(5) 0.196(5) -0.118(5)
N4 N 0.3096(3) 0.2559(3) 0.2909(3)
N5 N 0.1740(3) 0.1941(3) 0.2316(3)
C4 C 0.1318(3) 0.0688(3) 0.3199(4)
C5 C 0.2420(3) 0.0490(3) 0.4374(3)
C6 C 0.3532(3) 0.1702(3) 0.4151(4)
N6 N 0.2441(4) -0.0686(3) 0.5593(4)
O3 O 0.3543(4) -0.0673(4) 0.6540(4)
O4 O 0.1340(4) -0.1671(3) 0.5638(4)
H4 H 0.368(10) 0.342(11) 0.27(1)
H5 H 0.042(5) 0.015(5) 0.296(5)
H6 H 0.438(4) 0.197(4) 0.465(4)
N7 N 0.3742(3) 0.6109(3) 0.0312(3)
N8 N 0.4432(3) 0.5436(3) 0.1582(3)
C7 C 0.5695(3) 0.6305(3) 0.2011(4)
C8 C 0.5803(3) 0.7566(3) 0.0968(4)
C9 C 0.4547(3) 0.7403(3) -0.0085(4)
N9 N 0.6989(3) 0.8796(3) 0.0952(4)
O5 O 0.6886(4) 0.9823(3) -0.0079(5)
O6 O 0.8028(3) 0.8753(4) 0.1975(5)
H7 H 0.288(11) 0.574(9) -0.032(10)
H8 H 0.635(4) 0.603(4) 0.290(5)
H9 H 0.427(4) 0.804(4) -0.099(5)
H10? H 0.186(10) 0.511(9) -0.074(9)
H11? H 0.142(7) 0.234(8) 0.164(11)
H12? H 0.421(7) 0.471(10) 0.199(9)
#END

data_CSD_CIF_WIKZUL01
_audit_creation_date 2017-12-28
_audit_creation_method CSD-ConQuest-V1
_database_code_CSD WIKZUL01
_database_code_depnum_ccdc_archive '1514767'
_chemical_formula_sum 'C3 H3 N3 O2'
_chemical_formula_moiety
;
C3 H3 N3 O2
;
_journal_coden_Cambridge 1147
_journal_volume 18
_journal_year 2018
_journal_page_first 969
_journal_name_full 'Cryst.Growth Des. '
loop_
_publ_author_name
"B.Fernandez"
"I.Fernandez"
"J.Cepeda"
"M.Medina-ODonnell"
"E.E.Rufino-Palomares"
"A.Raya-Baron"
"S.Gomez-Ruiz"
"A.Perez-Jimenez"
"J.A.Lupianez"
"F.J.Reyes-Zurita"
"A.Rodriguez-Dieguez"
_chemical_name_systematic
;
4-nitro-1H-pyrazole
;
_cell_volume    726.555
_exptl_crystal_colour 'pale pink'
_exptl_crystal_density_diffrn 1.551
_exptl_crystal_description 'plate'
_diffrn_ambient_temperature 100
#These two values have been output from a single CSD field.
_refine_ls_R_factor_gt 0.0542
_refine_ls_wR_factor_gt 0.0542
_symmetry_cell_setting triclinic
_symmetry_space_group_name_H-M 'P -1'
_symmetry_Int_Tables_number 2
loop_
_symmetry_equiv_pos_site_id
_symmetry_equiv_pos_as_xyz
1 x,y,z
2 -x,-y,-z
_cell_length_a 8.0288(16)
_cell_length_b 9.6212(19)
_cell_length_c 9.906(2)
_cell_angle_alpha 74.395(3)
_cell_angle_beta 81.549(3)
_cell_angle_gamma 83.255(3)
_cell_formula_units_Z 6
loop_
_atom_type_symbol
_atom_type_radius_bond
C 0.68
H 0.23
N 0.68
O 0.68
loop_
_atom_site_label
_atom_site_type_symbol
_atom_site_fract_x
_atom_site_fract_y
_atom_site_fract_z
N1 N -0.2101(4) 0.2540(3) 0.1923(3)
H1 H -0.24810 0.33610 0.14230
N2 N -0.2703(4) 0.1939(3) 0.3291(3)
C1 C -0.1798(4) 0.0681(4) 0.3708(4)
H2 H -0.19290 0.00410 0.45990
C2 C -0.0624(4) 0.0494(4) 0.2579(3)
C3 C -0.0852(4) 0.1688(4) 0.1466(3)
H3 H -0.02470 0.18620 0.05700
N3 N 0.0614(4) -0.0683(3) 0.2554(3)
O1 O 0.1556(3) -0.0672(3) 0.1453(3)
O2 O 0.0682(3) -0.1676(3) 0.3651(3)
N4 N 0.4686(4) 0.3914(3) -0.1298(3)
H4 H 0.51660 0.42780 -0.21340
N5 N 0.3394(3) 0.4606(3) -0.0596(3)
C4 C 0.3011(4) 0.3708(4) 0.0658(4)
H5 H 0.21830 0.38980 0.13620
C5 C 0.4050(4) 0.2440(4) 0.0744(3)
C6 C 0.5092(4) 0.2603(4) -0.0507(4)
H6 H 0.59240 0.19260 -0.07520
N6 N 0.4089(4) 0.1199(3) 0.1931(3)
O3 O 0.5134(3) 0.0173(3) 0.1813(3)
O4 O 0.3090(3) 0.1223(3) 0.2996(2)
N7 N 0.4414(4) 0.3244(3) 0.4649(3)
H7 H 0.52540 0.27680 0.42850
N8 N 0.3765(4) 0.4587(3) 0.4002(3)
C7 C 0.2485(4) 0.4977(4) 0.4873(4)
H8 H 0.18100 0.58450 0.46990
C8 C 0.2336(4) 0.3850(4) 0.6093(3)
C9 C 0.3574(4) 0.2769(4) 0.5918(4)
H9 H 0.37790 0.18840 0.65620
N9 N 0.1156(4) 0.3816(4) 0.7325(3)
O5 O 0.1206(3) 0.2707(3) 0.8315(2)
O6 O 0.0138(3) 0.4887(3) 0.7342(3)
#END
